
Gurobi 9.5.1 (win64, Java) logging started Thu Mar 31 17:52:41 2022

Set parameter Username
Academic license - for non-commercial use only - expires 2023-02-25
Set parameter Presolve to value 0
Set parameter Method to value 0
Gurobi Optimizer version 9.5.1 build v9.5.1rc2 (win64)
Thread count: 2 physical cores, 4 logical processors, using up to 4 threads
Optimize a model with 77 rows, 60 columns and 240 nonzeros
Model fingerprint: 0x64c7e54b
Coefficient statistics:
  Matrix range     [1e+00, 3e+03]
  Objective range  [3e+02, 3e+03]
  Bounds range     [0e+00, 0e+00]
  RHS range        [1e+00, 8e+04]
Iteration    Objective       Primal Inf.    Dual Inf.      Time
       0    0.0000000e+00   1.378866e+03   6.614665e+07      0s
      59   -3.1607751e+04   0.000000e+00   0.000000e+00      0s

Solved in 59 iterations and 0.01 seconds (0.00 work units)
Optimal objective -3.160775126e+04

Gurobi 9.5.1 (win64, Java) logging started Thu Mar 31 17:54:47 2022

Set parameter Username
Academic license - for non-commercial use only - expires 2023-02-25
Set parameter Presolve to value 0
Set parameter Method to value 0
Gurobi Optimizer version 9.5.1 build v9.5.1rc2 (win64)
Thread count: 2 physical cores, 4 logical processors, using up to 4 threads
Optimize a model with 77 rows, 60 columns and 240 nonzeros
Model fingerprint: 0x64c7e54b
Coefficient statistics:
  Matrix range     [1e+00, 3e+03]
  Objective range  [3e+02, 3e+03]
  Bounds range     [0e+00, 0e+00]
  RHS range        [1e+00, 8e+04]
Iteration    Objective       Primal Inf.    Dual Inf.      Time
       0    0.0000000e+00   1.378866e+03   6.614665e+07      0s
      59   -3.1607751e+04   0.000000e+00   0.000000e+00      0s

Solved in 59 iterations and 0.00 seconds (0.00 work units)
Optimal objective -3.160775126e+04

Gurobi 9.5.1 (win64, Java) logging started Thu Mar 31 18:00:05 2022

Set parameter Username
Academic license - for non-commercial use only - expires 2023-02-25
Set parameter Presolve to value 0
Set parameter Method to value 0
Gurobi Optimizer version 9.5.1 build v9.5.1rc2 (win64)
Thread count: 2 physical cores, 4 logical processors, using up to 4 threads
Optimize a model with 77 rows, 60 columns and 240 nonzeros
Model fingerprint: 0x5aade929
Coefficient statistics:
  Matrix range     [1e+00, 3e+03]
  Objective range  [3e+02, 3e+03]
  Bounds range     [0e+00, 0e+00]
  RHS range        [1e+00, 8e+04]
Iteration    Objective       Primal Inf.    Dual Inf.      Time
       0    0.0000000e+00   1.378866e+03   6.614778e+07      0s
      45   -3.3579625e+04   0.000000e+00   0.000000e+00      0s

Solved in 45 iterations and 0.00 seconds (0.00 work units)
Optimal objective -3.357962495e+04

Gurobi 9.5.1 (win64, Java) logging started Thu Mar 31 18:00:16 2022

Set parameter Username
Academic license - for non-commercial use only - expires 2023-02-25
Set parameter Presolve to value 0
Set parameter Method to value 0
Gurobi Optimizer version 9.5.1 build v9.5.1rc2 (win64)
Thread count: 2 physical cores, 4 logical processors, using up to 4 threads
Optimize a model with 77 rows, 60 columns and 240 nonzeros
Model fingerprint: 0x5aade929
Coefficient statistics:
  Matrix range     [1e+00, 3e+03]
  Objective range  [3e+02, 3e+03]
  Bounds range     [0e+00, 0e+00]
  RHS range        [1e+00, 8e+04]
Iteration    Objective       Primal Inf.    Dual Inf.      Time
       0    0.0000000e+00   1.378866e+03   6.614778e+07      0s
      45   -3.3579625e+04   0.000000e+00   0.000000e+00      0s

Solved in 45 iterations and 0.00 seconds (0.00 work units)
Optimal objective -3.357962495e+04

Gurobi 9.5.1 (win64, Java) logging started Thu Mar 31 18:00:29 2022

Set parameter Username
Academic license - for non-commercial use only - expires 2023-02-25
Set parameter Presolve to value 0
Set parameter Method to value 0
Gurobi Optimizer version 9.5.1 build v9.5.1rc2 (win64)
Thread count: 2 physical cores, 4 logical processors, using up to 4 threads
Optimize a model with 77 rows, 60 columns and 240 nonzeros
Model fingerprint: 0x5aade929
Coefficient statistics:
  Matrix range     [1e+00, 3e+03]
  Objective range  [3e+02, 3e+03]
  Bounds range     [0e+00, 0e+00]
  RHS range        [1e+00, 8e+04]
Iteration    Objective       Primal Inf.    Dual Inf.      Time
       0    0.0000000e+00   1.378866e+03   6.614778e+07      0s
      45   -3.3579625e+04   0.000000e+00   0.000000e+00      0s

Solved in 45 iterations and 0.01 seconds (0.00 work units)
Optimal objective -3.357962495e+04

Gurobi 9.5.1 (win64, Java) logging started Thu Mar 31 18:01:17 2022

Set parameter Username
Academic license - for non-commercial use only - expires 2023-02-25
Set parameter Presolve to value 0
Set parameter Method to value 0
Gurobi Optimizer version 9.5.1 build v9.5.1rc2 (win64)
Thread count: 2 physical cores, 4 logical processors, using up to 4 threads
Optimize a model with 77 rows, 60 columns and 240 nonzeros
Model fingerprint: 0x64c7e54b
Coefficient statistics:
  Matrix range     [1e+00, 3e+03]
  Objective range  [3e+02, 3e+03]
  Bounds range     [0e+00, 0e+00]
  RHS range        [1e+00, 8e+04]
Iteration    Objective       Primal Inf.    Dual Inf.      Time
       0    0.0000000e+00   1.378866e+03   6.614665e+07      0s
      59   -3.1607751e+04   0.000000e+00   0.000000e+00      0s

Solved in 59 iterations and 0.00 seconds (0.00 work units)
Optimal objective -3.160775126e+04

Gurobi 9.5.1 (win64, Java) logging started Thu Mar 31 18:04:52 2022

Set parameter Username
Academic license - for non-commercial use only - expires 2023-02-25
Set parameter Presolve to value 0
Set parameter Method to value 0
Gurobi Optimizer version 9.5.1 build v9.5.1rc2 (win64)
Thread count: 2 physical cores, 4 logical processors, using up to 4 threads
Optimize a model with 77 rows, 60 columns and 240 nonzeros
Model fingerprint: 0x64c7e54b
Coefficient statistics:
  Matrix range     [1e+00, 3e+03]
  Objective range  [3e+02, 3e+03]
  Bounds range     [0e+00, 0e+00]
  RHS range        [1e+00, 8e+04]
Iteration    Objective       Primal Inf.    Dual Inf.      Time
       0    0.0000000e+00   1.378866e+03   6.614665e+07      0s
      59   -3.1607751e+04   0.000000e+00   0.000000e+00      0s

Solved in 59 iterations and 0.00 seconds (0.00 work units)
Optimal objective -3.160775126e+04

Gurobi 9.5.1 (win64, Java) logging started Thu Mar 31 18:12:39 2022

Set parameter Username
Academic license - for non-commercial use only - expires 2023-02-25
Set parameter Presolve to value 0
Set parameter Method to value 0
Gurobi Optimizer version 9.5.1 build v9.5.1rc2 (win64)
Thread count: 2 physical cores, 4 logical processors, using up to 4 threads
Optimize a model with 77 rows, 60 columns and 240 nonzeros
Model fingerprint: 0xf3c6a3c7
Coefficient statistics:
  Matrix range     [1e+00, 3e+03]
  Objective range  [3e+02, 3e+03]
  Bounds range     [0e+00, 0e+00]
  RHS range        [1e+00, 8e+04]
Iteration    Objective       Primal Inf.    Dual Inf.      Time
       0   -0.0000000e+00   1.378866e+03   6.614665e+07      0s
      59    3.1607751e+04   0.000000e+00   0.000000e+00      0s

Solved in 59 iterations and 0.01 seconds (0.00 work units)
Optimal objective  3.160775126e+04

Gurobi 9.5.1 (win64, Java) logging started Thu Mar 31 18:13:05 2022

Set parameter Username
Academic license - for non-commercial use only - expires 2023-02-25
Set parameter Presolve to value 0
Set parameter Method to value 0
Gurobi Optimizer version 9.5.1 build v9.5.1rc2 (win64)
Thread count: 2 physical cores, 4 logical processors, using up to 4 threads
Optimize a model with 77 rows, 60 columns and 240 nonzeros
Model fingerprint: 0x64c7e54b
Coefficient statistics:
  Matrix range     [1e+00, 3e+03]
  Objective range  [3e+02, 3e+03]
  Bounds range     [0e+00, 0e+00]
  RHS range        [1e+00, 8e+04]
Iteration    Objective       Primal Inf.    Dual Inf.      Time
       0    0.0000000e+00   1.378866e+03   6.614665e+07      0s
      59   -3.1607751e+04   0.000000e+00   0.000000e+00      0s

Solved in 59 iterations and 0.00 seconds (0.00 work units)
Optimal objective -3.160775126e+04

Gurobi 9.5.1 (win64, Java) logging started Thu Mar 31 18:41:35 2022

Set parameter Username
Academic license - for non-commercial use only - expires 2023-02-25
Set parameter Presolve to value 0
Set parameter Method to value 0
Gurobi Optimizer version 9.5.1 build v9.5.1rc2 (win64)
Thread count: 2 physical cores, 4 logical processors, using up to 4 threads
Optimize a model with 77 rows, 60 columns and 240 nonzeros
Model fingerprint: 0xf3c6a3c7
Coefficient statistics:
  Matrix range     [1e+00, 3e+03]
  Objective range  [3e+02, 3e+03]
  Bounds range     [0e+00, 0e+00]
  RHS range        [1e+00, 8e+04]
Iteration    Objective       Primal Inf.    Dual Inf.      Time
       0   -0.0000000e+00   1.378866e+03   6.614665e+07      0s
      59    3.1607751e+04   0.000000e+00   0.000000e+00      0s

Solved in 59 iterations and 0.01 seconds (0.00 work units)
Optimal objective  3.160775126e+04

Gurobi 9.5.1 (win64, Java) logging started Thu Mar 31 18:42:05 2022

Set parameter Username
Academic license - for non-commercial use only - expires 2023-02-25
Set parameter Presolve to value 0
Set parameter Method to value 0
Gurobi Optimizer version 9.5.1 build v9.5.1rc2 (win64)
Thread count: 2 physical cores, 4 logical processors, using up to 4 threads
Optimize a model with 77 rows, 60 columns and 240 nonzeros
Model fingerprint: 0x5aade929
Coefficient statistics:
  Matrix range     [1e+00, 3e+03]
  Objective range  [3e+02, 3e+03]
  Bounds range     [0e+00, 0e+00]
  RHS range        [1e+00, 8e+04]
Iteration    Objective       Primal Inf.    Dual Inf.      Time
       0    0.0000000e+00   1.378866e+03   6.614778e+07      0s
      45   -3.3579625e+04   0.000000e+00   0.000000e+00      0s

Solved in 45 iterations and 0.00 seconds (0.00 work units)
Optimal objective -3.357962495e+04

Gurobi 9.5.1 (win64, Java) logging started Thu Mar 31 18:42:48 2022

Set parameter Username
Academic license - for non-commercial use only - expires 2023-02-25
Set parameter Presolve to value 0
Set parameter Method to value 0
Gurobi Optimizer version 9.5.1 build v9.5.1rc2 (win64)
Thread count: 2 physical cores, 4 logical processors, using up to 4 threads
Optimize a model with 77 rows, 60 columns and 240 nonzeros
Model fingerprint: 0x5bba465b
Coefficient statistics:
  Matrix range     [1e+00, 3e+03]
  Objective range  [0e+00, 0e+00]
  Bounds range     [0e+00, 0e+00]
  RHS range        [1e+00, 8e+04]
Iteration    Objective       Primal Inf.    Dual Inf.      Time
       0    0.0000000e+00   1.378866e+03   6.614722e+07      0s
      35    0.0000000e+00   0.000000e+00   0.000000e+00      0s

Solved in 35 iterations and 0.01 seconds (0.00 work units)
Optimal objective  0.000000000e+00

Gurobi 9.5.1 (win64, Java) logging started Thu Mar 31 18:43:13 2022

Set parameter Username
Academic license - for non-commercial use only - expires 2023-02-25
Set parameter Presolve to value 0
Set parameter Method to value 0
Gurobi Optimizer version 9.5.1 build v9.5.1rc2 (win64)
Thread count: 2 physical cores, 4 logical processors, using up to 4 threads
Optimize a model with 77 rows, 60 columns and 240 nonzeros
Model fingerprint: 0x64c7e54b
Coefficient statistics:
  Matrix range     [1e+00, 3e+03]
  Objective range  [3e+02, 3e+03]
  Bounds range     [0e+00, 0e+00]
  RHS range        [1e+00, 8e+04]
Iteration    Objective       Primal Inf.    Dual Inf.      Time
       0    0.0000000e+00   1.378866e+03   6.614665e+07      0s
      59   -3.1607751e+04   0.000000e+00   0.000000e+00      0s

Solved in 59 iterations and 0.00 seconds (0.00 work units)
Optimal objective -3.160775126e+04

Gurobi 9.5.1 (win64, Java) logging started Thu Mar 31 18:44:23 2022

Set parameter Username
Academic license - for non-commercial use only - expires 2023-02-25
Set parameter Presolve to value 0
Set parameter Method to value 0
Gurobi Optimizer version 9.5.1 build v9.5.1rc2 (win64)
Thread count: 2 physical cores, 4 logical processors, using up to 4 threads
Optimize a model with 77 rows, 60 columns and 240 nonzeros
Model fingerprint: 0x5aade929
Coefficient statistics:
  Matrix range     [1e+00, 3e+03]
  Objective range  [3e+02, 3e+03]
  Bounds range     [0e+00, 0e+00]
  RHS range        [1e+00, 8e+04]
Iteration    Objective       Primal Inf.    Dual Inf.      Time
       0    0.0000000e+00   1.378866e+03   6.614778e+07      0s
      45   -3.3579625e+04   0.000000e+00   0.000000e+00      0s

Solved in 45 iterations and 0.00 seconds (0.00 work units)
Optimal objective -3.357962495e+04

Gurobi 9.5.1 (win64, Java) logging started Thu Mar 31 18:45:14 2022

Set parameter Username
Academic license - for non-commercial use only - expires 2023-02-25
Set parameter Presolve to value 0
Set parameter Method to value 0
Gurobi Optimizer version 9.5.1 build v9.5.1rc2 (win64)
Thread count: 2 physical cores, 4 logical processors, using up to 4 threads
Optimize a model with 77 rows, 60 columns and 240 nonzeros
Model fingerprint: 0x5aade929
Coefficient statistics:
  Matrix range     [1e+00, 3e+03]
  Objective range  [3e+02, 3e+03]
  Bounds range     [0e+00, 0e+00]
  RHS range        [1e+00, 8e+04]
Iteration    Objective       Primal Inf.    Dual Inf.      Time
       0    0.0000000e+00   1.378866e+03   6.614778e+07      0s
      45   -3.3579625e+04   0.000000e+00   0.000000e+00      0s

Solved in 45 iterations and 0.01 seconds (0.00 work units)
Optimal objective -3.357962495e+04

Gurobi 9.5.1 (win64, Java) logging started Thu Mar 31 18:45:26 2022

Set parameter Username
Academic license - for non-commercial use only - expires 2023-02-25
Set parameter Presolve to value 0
Set parameter Method to value 0
Gurobi Optimizer version 9.5.1 build v9.5.1rc2 (win64)
Thread count: 2 physical cores, 4 logical processors, using up to 4 threads
Optimize a model with 77 rows, 60 columns and 240 nonzeros
Model fingerprint: 0xf3c6a3c7
Coefficient statistics:
  Matrix range     [1e+00, 3e+03]
  Objective range  [3e+02, 3e+03]
  Bounds range     [0e+00, 0e+00]
  RHS range        [1e+00, 8e+04]
Iteration    Objective       Primal Inf.    Dual Inf.      Time
       0   -0.0000000e+00   1.378866e+03   6.614665e+07      0s
      59    3.1607751e+04   0.000000e+00   0.000000e+00      0s

Solved in 59 iterations and 0.01 seconds (0.00 work units)
Optimal objective  3.160775126e+04

Gurobi 9.5.1 (win64, Java) logging started Thu Mar 31 18:48:20 2022

Set parameter Username
Academic license - for non-commercial use only - expires 2023-02-25
Set parameter Presolve to value 0
Set parameter Method to value 0
Gurobi Optimizer version 9.5.1 build v9.5.1rc2 (win64)
Thread count: 2 physical cores, 4 logical processors, using up to 4 threads
Optimize a model with 77 rows, 60 columns and 240 nonzeros
Model fingerprint: 0xf3c6a3c7
Coefficient statistics:
  Matrix range     [1e+00, 3e+03]
  Objective range  [3e+02, 3e+03]
  Bounds range     [0e+00, 0e+00]
  RHS range        [1e+00, 8e+04]
Iteration    Objective       Primal Inf.    Dual Inf.      Time
       0   -0.0000000e+00   1.378866e+03   6.614665e+07      0s
      59    3.1607751e+04   0.000000e+00   0.000000e+00      0s

Solved in 59 iterations and 0.00 seconds (0.00 work units)
Optimal objective  3.160775126e+04

Gurobi 9.5.1 (win64, Java) logging started Thu Mar 31 18:48:32 2022

Set parameter Username
Academic license - for non-commercial use only - expires 2023-02-25
Set parameter Presolve to value 0
Set parameter Method to value 0
Gurobi Optimizer version 9.5.1 build v9.5.1rc2 (win64)
Thread count: 2 physical cores, 4 logical processors, using up to 4 threads
Optimize a model with 77 rows, 60 columns and 240 nonzeros
Model fingerprint: 0xd95d5533
Coefficient statistics:
  Matrix range     [1e+00, 3e+03]
  Objective range  [3e+02, 3e+03]
  Bounds range     [0e+00, 0e+00]
  RHS range        [1e+00, 8e+04]
Iteration    Objective       Primal Inf.    Dual Inf.      Time
       0   -0.0000000e+00   1.378866e+03   6.614778e+07      0s
      45    3.3579625e+04   0.000000e+00   0.000000e+00      0s

Solved in 45 iterations and 0.01 seconds (0.00 work units)
Optimal objective  3.357962495e+04

Gurobi 9.5.1 (win64, Java) logging started Thu Mar 31 18:49:30 2022

Set parameter Username
Academic license - for non-commercial use only - expires 2023-02-25
Set parameter Presolve to value 0
Set parameter Method to value 0
Gurobi Optimizer version 9.5.1 build v9.5.1rc2 (win64)
Thread count: 2 physical cores, 4 logical processors, using up to 4 threads
Optimize a model with 77 rows, 60 columns and 240 nonzeros
Model fingerprint: 0xd95d5533
Coefficient statistics:
  Matrix range     [1e+00, 3e+03]
  Objective range  [3e+02, 3e+03]
  Bounds range     [0e+00, 0e+00]
  RHS range        [1e+00, 8e+04]
Iteration    Objective       Primal Inf.    Dual Inf.      Time
       0   -0.0000000e+00   1.378866e+03   6.614778e+07      0s
      45    3.3579625e+04   0.000000e+00   0.000000e+00      0s

Solved in 45 iterations and 0.00 seconds (0.00 work units)
Optimal objective  3.357962495e+04
